N = 11;
H = 5;
T = 2;

avail = array3d(1..N, 1..H, 1..T, [8, 4, 4, 6, 3, 7, 4, 0, 4, 7, 8, 9, 0, 6, 5, 9, 5, 1, 0, 4, 7, 1, 1, 10, 2, 8, 2, 4, 3, 1, 6, 5, 0, 4, 2, 5, 4, 2, 2, 3, 1, 4, 7, 9, 2, 7, 3, 9, 5, 8, 0, 4, 2, 8, 6, 0, 5, 9, 4, 0, 5, 6, 7, 3, 10, 4, 2, 6, 0, 7, 3, 10, 2, 4, 8, 10, 7, 2, 3, 3, 2, 4, 0, 2, 5, 1, 3, 10, 8, 6, 1, 5, 8, 4, 9, 10, 8, 2, 9, 9, 8, 10, 1, 7, 5, 6, 6, 9, 9, 0]);

r = array2d(1..H, 1..T, [2, 4, 3, 3, 3, 2, 3, 1, 3, 4]);
